169
0 2 3 10 9 11 13 12 14 15 
16 6 4 5 8 20 19 7 18 17 
21 22 24 26 27 28 25 23 70 77 
75 73 71 80 83 82 74 79 84 85 
76 87 81 78 90 89 86 72 88 91 
92 102 108 110 107 109 111 103 105 104 
106 96 97 93 94 100 119 101 99 98 
95 113 112 114 152 151 146 153 147 149 
150 157 156 154 155 158 159 162 164 166 
168 167 165 163 160 161 142 145 144 143 
140 141 139 137 138 136 134 148 133 132 
130 131 128 129 120 135 64 63 62 122 
124 125 127 126 123 52 121 51 45 46 
49 47 53 55 54 60 56 61 59 58 
57 65 66 67 68 38 41 39 42 40 
48 50 43 44 118 117 116 115 36 35 
34 33 31 32 37 30 29 69 1 
